c Random 7-CNF over 30 variables and 270 clauses
c Generated with `cnfgen`
c (C) 2012-2016 Massimo Lauria <lauria.massimo@gmail.com>
c https://massimolauria.github.io/cnfgen
c
c COMMAND LINE: cnfgen --output tmp-7-30-270.dimacs --output-format dimacs randkcnf 7 30 270
c
c sdimacs generated by gen-sdimacs
c
p cnf 30 270
e 16 17 18 19 20 21 22 23 24 25 26 27 28 29 30 0
r 0.37 1 2 3 4 5 6 7 8 9 10 11 12 13 14 15 0
1 4 -11 -13 17 -19 25 0
-1 3 4 -10 12 -22 27 0
-2 -5 6 16 -20 22 26 0
1 -2 15 18 -23 28 -30 0
-9 14 -18 -20 -23 -25 -28 0
-2 -4 -11 -19 22 25 -29 0
-2 -3 6 -9 12 24 -29 0
-1 -7 9 -12 -28 -29 30 0
1 5 -9 -10 -15 -18 -27 0
4 -6 -7 -11 19 -20 28 0
-6 11 -13 -14 -21 24 -25 0
1 -4 7 13 25 29 -30 0
2 -9 19 -21 22 -24 -28 0
1 -6 7 -8 -13 28 29 0
-3 6 -7 -8 17 -18 28 0
3 6 9 11 -16 -26 28 0
-3 5 12 -20 25 26 -30 0
-1 3 -7 9 -10 -14 23 0
5 11 12 13 -23 28 -30 0
-1 -2 -6 10 -22 -24 -28 0
-8 -10 -11 -14 -27 28 -30 0
-9 -10 -11 -17 -22 24 29 0
1 4 5 -8 9 -17 -25 0
1 2 -8 -16 -17 -18 26 0
-3 8 -10 14 15 -16 -25 0
-2 12 -13 17 22 -25 30 0
1 -2 -7 -10 -13 -25 27 0
-9 13 -18 -22 25 -26 -29 0
1 -16 -19 -25 26 27 -28 0
-10 11 -13 -16 -18 21 -22 0
-3 8 11 15 -17 -19 -29 0
-4 -6 -9 23 26 -27 28 0
3 -8 11 -18 -20 22 -27 0
1 -3 -5 6 -11 -25 -29 0
1 -12 -13 19 21 -27 30 0
1 8 11 -15 -18 25 -27 0
2 6 9 -16 17 -21 28 0
-1 6 10 -11 15 -17 -25 0
-9 16 -18 -21 25 -28 30 0
2 3 18 -20 -26 -27 -28 0
-7 12 -14 18 20 23 24 0
-1 2 -3 16 -27 28 -29 0
1 3 6 8 15 -20 30 0
-3 6 10 -20 23 24 29 0
2 4 -5 -13 18 -19 22 0
-3 -4 6 17 20 21 -25 0
-2 6 11 13 15 -18 -29 0
10 -12 14 17 -22 -26 -30 0
-15 18 20 -22 -24 26 30 0
-7 10 -11 12 21 24 30 0
-4 -10 -12 -21 -22 26 -28 0
8 14 16 -18 -20 25 -27 0
-5 -10 -18 -21 -24 -29 -30 0
3 -5 7 -8 -12 29 30 0
-2 3 9 -17 19 23 30 0
5 7 -12 14 24 -28 -29 0
-8 9 -19 20 -23 28 -30 0
9 -17 -21 -24 27 29 30 0
-2 -6 11 13 -25 -27 -30 0
5 -7 12 -14 -16 -18 22 0
-2 -3 -5 -8 22 23 -30 0
-1 -4 -15 -20 27 29 -30 0
-7 12 -14 -20 -24 27 -28 0
1 7 -16 -19 -20 -26 30 0
3 -6 13 -15 -16 18 26 0
3 -8 13 20 -23 26 -28 0
-3 -10 -11 12 -17 19 -23 0
-1 -13 15 20 22 -24 -27 0
-11 -17 -18 -19 26 -27 29 0
-2 -7 8 -17 19 23 24 0
7 -10 -12 -20 22 25 29 0
10 -13 15 21 23 -26 30 0
-1 4 -9 -16 18 -20 -25 0
3 -6 -11 -16 -17 -18 25 0
4 6 -8 10 17 -24 -27 0
3 -7 9 -11 -14 19 -29 0
-2 12 13 -15 -24 -25 27 0
1 -2 7 -18 19 -24 -29 0
10 12 15 -23 27 -29 30 0
-7 14 15 -18 20 24 -26 0
3 -4 5 11 13 22 28 0
-4 7 10 11 20 -21 -29 0
-6 -7 -9 13 -18 24 -27 0
-3 8 -10 -21 22 -26 -27 0
-1 -4 -10 -18 -25 26 29 0
3 6 12 15 -16 22 -27 0
1 5 -6 7 9 13 -26 0
-5 7 -11 -13 21 -25 29 0
1 8 14 18 -25 -26 29 0
4 7 9 10 12 24 -26 0
-7 -14 -16 18 24 -26 29 0
2 7 -8 -14 -19 24 -28 0
-4 9 11 13 -18 -20 25 0
-3 6 12 14 17 -28 -29 0
9 11 -21 24 -26 -27 -30 0
-2 5 9 12 25 -26 -30 0
-6 -7 -11 -17 -20 27 -30 0
1 4 7 15 -18 26 30 0
3 5 -6 -8 -12 -14 -23 0
-5 -16 -17 20 -23 -26 30 0
-2 11 -13 15 -17 -25 26 0
-6 -7 11 -17 26 -27 30 0
-2 8 13 -16 -19 -22 25 0
-2 5 12 -18 -25 -26 -29 0
-1 -9 13 18 -21 -24 -26 0
6 10 -13 -17 -20 -26 29 0
7 -9 10 21 23 -26 -28 0
8 -9 -13 14 15 -19 -23 0
-8 -9 -18 20 -28 29 30 0
-2 -4 14 17 -19 -26 -30 0
-5 6 7 -15 -20 23 -25 0
-7 -10 -18 23 26 27 -30 0
-3 5 -6 -7 12 19 -21 0
3 -6 -7 -9 12 15 25 0
2 -3 -4 -10 -18 25 26 0
-9 -10 12 -17 19 24 -25 0
8 13 -16 18 -20 -26 -29 0
2 4 12 13 26 -27 30 0
6 11 17 -21 24 25 27 0
-9 11 -17 18 21 -22 27 0
11 -14 -17 -18 19 -20 -24 0
1 -9 14 21 -25 27 -29 0
2 -6 -7 -11 12 15 -20 0
-1 2 -14 17 20 -28 -30 0
-5 -7 10 12 -19 -28 29 0
-2 -4 10 -21 -25 29 30 0
-1 -4 -7 11 15 -21 -27 0
4 -6 11 14 -20 -22 23 0
5 -12 13 24 25 -27 -30 0
-3 6 -7 11 14 20 -25 0
-2 -3 9 15 20 -24 27 0
-7 -12 14 16 25 26 -28 0
-2 -3 -6 -9 18 -26 27 0
1 3 13 18 25 28 -29 0
-2 -5 -7 15 -16 19 25 0
6 -7 -11 -20 -22 23 28 0
4 6 7 13 -21 26 27 0
2 -5 -9 -12 20 -21 27 0
-15 18 -19 23 -28 -29 30 0
-2 -4 9 -11 12 14 -27 0
-6 7 12 19 -23 -27 29 0
3 -7 -13 20 -21 -23 28 0
2 4 14 19 20 26 -30 0
3 8 -17 22 23 29 -30 0
4 -5 10 20 -22 23 -27 0
11 -12 -15 -19 22 25 26 0
-2 -6 10 -15 -22 -23 30 0
-8 -10 -14 -17 -22 -28 30 0
2 7 -9 -13 -24 28 -29 0
4 7 8 -10 -12 20 30 0
-1 -8 10 14 19 -22 -29 0
-1 -2 4 6 13 -21 23 0
8 12 -20 -24 25 -28 -30 0
-3 -6 8 10 -18 -23 -25 0
-5 -6 -10 13 18 19 -26 0
-1 -4 5 -9 12 -17 28 0
3 10 19 23 26 -28 30 0
2 6 -9 10 12 13 -14 0
12 -14 -18 20 -21 25 27 0
3 5 11 -17 18 23 -29 0
-2 -3 -5 -6 14 18 27 0
-4 9 -14 19 21 23 26 0
-1 -4 -5 -14 20 23 -29 0
-6 9 13 -15 17 24 -26 0
7 -8 16 -21 -23 25 -30 0
1 14 -18 23 28 29 30 0
1 10 -11 14 15 26 -27 0
-3 -11 -22 25 -26 -27 -30 0
-1 10 13 15 -17 -22 -28 0
-6 -8 13 -14 -15 16 -29 0
1 -2 -6 -7 9 -13 -20 0
-1 -9 -16 18 -19 -28 29 0
-1 3 -5 9 11 -14 19 0
2 5 11 -13 -22 -23 -29 0
4 7 -9 19 -22 -23 -29 0
8 9 10 -12 17 20 30 0
-6 -10 11 12 -17 20 -22 0
3 5 -8 9 -10 -22 -26 0
5 8 -12 14 17 20 27 0
2 7 -15 19 20 -21 -28 0
2 -15 -18 -19 -21 25 -30 0
-4 -6 12 -14 -17 -23 30 0
13 -17 18 25 -27 -28 30 0
-4 11 12 -15 -27 -29 -30 0
-1 5 -8 21 -28 -29 30 0
-4 -9 -16 -21 23 25 26 0
2 5 6 9 -12 18 25 0
3 14 -16 20 25 -27 30 0
-9 -10 11 -12 15 -22 -27 0
3 -4 -6 -7 -10 -18 -27 0
5 -12 14 -24 -28 29 30 0
-7 8 11 -19 -27 28 29 0
-5 6 7 -23 25 -29 -30 0
3 -7 12 -19 -21 -25 27 0
-1 6 7 -8 -14 15 30 0
2 11 12 -13 -14 -18 -30 0
2 -10 -13 16 18 25 -28 0
3 -5 -17 19 27 28 -30 0
2 3 9 -16 -21 25 -29 0
-5 9 -19 20 -22 -23 26 0
5 11 15 -17 20 -26 -30 0
-3 4 5 -19 22 -24 27 0
6 -7 -8 -12 -15 -20 -24 0
-9 12 13 -19 -23 24 -28 0
1 -8 10 21 -23 -26 -30 0
-1 -5 -9 -10 20 23 26 0
1 8 -10 -19 26 29 -30 0
1 2 -4 -5 7 9 30 0
-2 -5 -16 -20 -22 29 30 0
-5 -10 12 14 22 28 30 0
-1 -3 6 -7 9 15 -26 0
-1 -9 16 -17 20 -23 -28 0
4 10 14 17 -22 25 29 0
3 6 -13 15 22 24 26 0
2 7 8 11 13 -14 28 0
6 -7 8 10 -16 -17 22 0
-3 -14 -15 21 22 23 29 0
2 -4 -16 20 26 -28 -29 0
3 5 7 9 17 21 -30 0
-7 10 -20 21 -24 28 -29 0
3 9 -10 12 -15 -21 -30 0
-6 11 15 18 -19 -21 -28 0
-3 4 8 -9 -14 16 29 0
2 16 17 18 -19 24 28 0
3 -9 13 24 -27 29 30 0
3 4 -7 -8 15 -18 24 0
4 -7 -11 13 16 -17 30 0
-3 -15 -17 -18 24 27 -29 0
-10 -15 17 -19 -20 21 26 0
3 -4 13 15 16 -25 -26 0
-1 -5 10 -16 -18 28 -29 0
1 -12 -13 14 -22 24 26 0
-7 8 -13 -18 -19 22 28 0
-4 -7 21 24 25 26 -29 0
-1 2 9 -14 16 -18 -20 0
10 11 -13 -17 -25 26 -29 0
3 10 14 20 -26 -28 -30 0
4 -14 -18 20 -23 25 -26 0
4 -11 -18 -22 24 -25 -26 0
1 -6 9 17 -19 -21 26 0
9 10 -14 -15 17 -18 28 0
5 -6 11 13 16 -23 30 0
-14 15 -16 -17 -20 -25 29 0
12 -16 17 -21 -22 -25 -30 0
4 5 6 19 28 -29 30 0
-4 -6 -9 -12 14 -16 -30 0
2 6 -7 -8 16 24 29 0
-4 -5 -6 7 8 -13 -17 0
1 6 14 15 -25 27 30 0
-4 -5 6 7 -11 -17 -28 0
-5 7 -8 10 -12 22 -26 0
-16 20 23 24 25 26 -30 0
5 -10 -18 -20 22 23 30 0
-4 -15 -18 -19 -23 -24 -29 0
4 6 -7 -8 19 20 -27 0
-2 -3 -8 14 16 -20 -29 0
4 -11 16 18 -20 22 -25 0
-1 13 -14 -16 25 26 -30 0
-1 -2 4 -13 -14 20 22 0
1 -3 -4 -6 10 15 22 0
3 -4 -15 -21 22 -23 30 0
1 6 -7 17 18 20 -22 0
-2 5 9 -11 17 -23 29 0
3 10 13 -15 -17 20 22 0
4 10 17 24 -28 -29 30 0
-1 -7 -9 10 12 -25 27 0
-2 5 -7 -8 -13 21 24 0
-1 5 8 -15 -20 -24 25 0
-2 -9 -16 -19 26 -28 -30 0
-1 -2 8 -14 -24 25 -27 0
